db/data/33401694511558154742690111741769214827.z3.out
-------------------
2500.125079445
